100
128
47
44
29
57
26
38
22
34
50
32
6
56
61
49
54
54
10
2
15
3
12
43
42
33
33
12
20
3
17
33
13
3
45
54
18
21
61
3
44
58
29
13
18
14
18
30
2
57
29
61
13
16
13
21
21
24
1
38
20
16
13
25
47
59
43
32
24
21
41
26
6
24
4
5
1
35
48
2
49
28
62
31
45
21
22
24
54
3
60
34
52
1
32
28
29
64
47
15
3
64